2	25
414	821	4	447	68	120	668	634	117	144	990	393	761	13	32	45	158	766	69	261	166	366	595	159	363	
515	371	821	629	506	686	508	660	870	706	157	619	607	660	618	718	764	242	289	652	219	660	492	243	722	
5226	5226	
